Version identifier: 22.1.0.0 | 2022-03-09 | 1a383f8ce
CPXPARAM_Threads                                 1
CPXPARAM_MIP_Strategy_VariableSelect             3
CPXPARAM_TimeLimit                               600
Tried aggregator 1 time.
MIP Presolve eliminated 12 rows and 924 columns.
MIP Presolve modified 1 coefficients.
Reduced MIP has 2156 rows, 2773 columns, and 25424 nonzeros.
Reduced MIP has 2772 binaries, 0 generals, 0 SOSs, and 0 indicators.
Presolve time = 0.01 sec. (10.63 ticks)
Found incumbent of value 9.000000 after 0.04 sec. (26.18 ticks)
Probing time = 0.00 sec. (2.76 ticks)
Tried aggregator 1 time.
Detecting symmetries...
Reduced MIP has 2156 rows, 2773 columns, and 25424 nonzeros.
Reduced MIP has 2772 binaries, 0 generals, 0 SOSs, and 0 indicators.
Presolve time = 0.01 sec. (11.33 ticks)
Probing time = 0.00 sec. (2.76 ticks)
Clique table members: 308.
MIP emphasis: balance optimality and feasibility.
MIP search method: dynamic search.
Parallel mode: none, using 1 thread.
Root relaxation solution time = 0.03 sec. (21.45 ticks)

        Nodes                                         Cuts/
   Node  Left     Objective  IInf  Best Integer    Best Bound    ItCnt     Gap

*     0+    0                            9.0000        0.0000           100.00%
      0     0        0.0000   169        9.0000        0.0000      732  100.00%
*     0+    0                            1.0000        0.0000           100.00%
*     0+    0                            0.0000        0.0000             0.00%
      0     0        cutoff              0.0000        0.0000      732    0.00%
Elapsed time = 0.19 sec. (153.12 ticks, tree = 0.01 MB, solutions = 3)

Root node processing (before b&c):
  Real time             =    0.19 sec. (153.28 ticks)
Sequential b&c:
  Real time             =    0.00 sec. (0.00 ticks)
                          ------------
Total (root+branch&cut) =    0.19 sec. (153.28 ticks)
Primal:	0
Dual:	0
Status:	Optimal
Time:	0.21
Sequence:
	6
	9
	4
	9
	6
	4
	9
	4
	6
	9
	4
	4
	9
	9
	9
	4
	6
	9
	9
	9
	9
	6
	9
	9
	5
	9
	6
	9
	9
	9
	9
	9
	9
	9
	9
	6
	9
	4
	5
	9
	9
	9
	9
	9
	9
	6
	9
	9
	9
	6
	9
	9
	9
	9
	9
	9
	9
	9
	9
	9
	9
	9
	9
	9
	6
	9
	9
	9
	9
	9
	9
	6
	9
	9
	9
	6
	9
	9
	9
	6
	9
	9
	4
	6
	0
	3
	4
	5
	2
	6
	9
	3
	0
	9
	6
	0
	4
	9
	5
	0
	6
	4
	0
	5
	9
	9
	6
	4
	0
	4
	6
	0
	9
	5
	2
	1
	9
	6
	9
	5
	0
	5
	9
	6
	9
	9
	5
	0
	6
	9
	0
	5
	9
	5
	4
	9
	6
	0
	3
	4
	6
	9
	9
	5
	9
	6
	0
	5
	9
	6
	4
	10
	9
	1
	0
	6
	9
	10
	0
	6
	9
	1
	4
	9
	6
	9
	5
	0
	4
	6
	0
	9
	5
	2
	5
	9
	6
	0
	9
	5
	9
	5
	9
	5
	0
	4
	6
	0
	5
	9
	6
	9
	5
	9
	9
	4
	5
	9
	9
	5
	9
	4
	6
	9
	9
	3
	4
	9
	6
	0
	5
	9
	6
	9
	5
	9
	9
	9
	6
	9
	5
	9
	9
	9
	6
	9
	5
	4
	9
	6
	9
	5
	9
	6
	9
	9
	9
	6
	0
	4
	5
	9
	6
	2
	5
	4
	1
	4
	6
	9
	5
	9
	6
	4
	10
	9
	0
	6
	4
	1
	9
	6
	9
	9
	9
	6
	9
	5
	9
	6
	2
	5
	4
	1
	2
	6
	9
	9
	1
	9
	9
	6
	9
	4
	5
	9
	1
	2
	4
	9
	6
	0
	1
	4
	6
	0
	5
	9
	10
	4
	6
	2
	9
	1
	9
	6
	9
	5
